100 8
764 706
452 509
815 683
545 412
509 737
171 770
217 349
761 359
829 425
753 396
436 798
194 447
930 416
440 808
650 335
225 326
283 303
54 535
122 585
768 682
167 251
198 239
922 497
780 759
572 471
673 733
54 474
762 742
658 275
853 679
221 152
695 869
392 151
714 792
863 560
51 496
174 190
628 977
658 799
217 52
73 385
786 711
94 391
355 136
754 964
260 817
413 514
668 203
779 800
781 507
686 478
818 402
229 295
604 831
810 485
882 521
474 632
89 752
640 402
788 551
627 711
709 728
672 775
510 616
220 44
58 627
542 447
779 682
95 381
777 673
351 61
98 225
611 350
832 707
622 987
435 779
780 741
855 727
265 316
16 667
817 727
620 793
145 378
519 292
141 780
247 387
657 482
808 673
257 45
542 599
490 611
499 842
107 355
662 469
682 864
864 798
285 239
619 332
463 522
626 823
